%chk=gaussjob.chk
# HF/3-21G guess=read force

Generated by ASE Gaussian driver

0 2
C       0.000000000000000      0.000000000000000      0.000000000000000
C       1.470000000000000      0.000000000000000      0.000000000000000
C       2.205000000000000      0.000000000000000      1.273057800000000
C       1.470000000000000      0.000000000000000      2.546114550000000
C      -0.000000000000000      0.000000000000000      2.546114550000000
C      -0.735000000000000      0.000000000000000      1.273057800000000
H       2.205000000000000     -0.000000000000000     -1.273057800000000
H       3.348450000000000     -0.000000000000000      1.273057800000000
H       2.041725000000000      0.000000000000000      3.536371650000000
H      -0.571725000000000      0.000000000000000      3.536371650000000
H      -1.878450000000000      0.000000000000000      1.273057800000000

