%chk=gaussjob.chk
%nprocs=1
# HF/3-21G guess=read force

Generated by ASE Gaussian driver

0 1
H       0.001050023041235      0.000466096518760      0.088306539201368
H      -0.001050021850109     -0.000466095468390      0.819693456290518
H       2.999583347317821      0.999793710926136      1.453485570145670
O       3.962311908076863      0.999972698743796      1.453756855602441
H       4.346447592998032      1.742812663259051      1.930733070544477

