%chk=gaussjob.chk
# HF/3-21G guess=read force

Generated by ASE Gaussian driver

0 1
H       0.000000000000000      0.000000000000000      0.000000000000000
H       0.000000000000000      0.000000000000000      0.908000000000000
H       3.000000000000000      1.000000000000000      1.454000000000000
O                     nan                    nan                    nan
H                     nan                    nan                    nan
H       1.000000000000000      1.000000000000000      1.454000000000000
O                     nan                    nan                    nan
H                     nan                    nan                    nan
C       1.000000000000000     -1.000000000000000      1.454000000000000
H       2.090000000000000     -1.000000000000000      1.454000000000000
H       0.636150523435190     -1.000000000000000      0.426520774709525
H       0.636150523435190     -1.889823110962306      1.967739612645237
H       0.636150523435190     -0.110176889037695      1.967739612645237

