%chk=gaussjob.chk
%nprocs=2
# HF/3-21G guess=read force

Generated by ASE Gaussian driver

0 1
H      -0.407646520241879     -0.282468035175370     -0.293583266919785
O       0.251875976260579     -0.729467823092088      0.450272408738857
H       1.147381720374796     -0.199951375834985      0.775513541350735
H       0.106882169886023     -0.052457139008165      2.953788089376845
O       0.209289192678746     -0.782330983915619      3.756842864720807
H       0.795124226568594     -0.540719271668579      4.643703109388666
H      -0.162164751053721     -0.005178100771626      5.957979692139658
O       0.622978868291619     -0.374428537466054      6.617755117570368
H       0.882569424815688      0.177753972030283      7.520975588535156
H      -0.159914987205608      2.986443108092531      0.068440359005549
O      -0.460463727616394      2.497535878246251      0.995122707624280
H      -1.220778946094852      2.951224793611250      1.630879844135530
H      -0.009793511511874      2.943409411065780      2.949732537641433
O       0.024997708593719      2.269665278020231      3.805862442615127
H      -0.636043125898513      2.432762548583888      4.657052371754622
H       0.083197656516823      3.008622759676547      6.040783705440308
O       0.126668131486160      2.921480508534415      7.126424781428050
H       0.982669776115189      3.317530985588507      7.672781079110821
H       0.068104039119187      5.990745033484206      0.092278245366950
O      -0.941720339672092      5.677914434191657      0.357781051651688
H      -1.646021996842753      6.398923084167718      0.772757800839350
H      -0.037115075975167      6.063761022172470      2.921265608788435
O      -0.076642791004185      6.120048263445660      4.009093401324753
H      -0.362808928197270      7.051138305249324      4.498256233087387
H       0.089332535172335      5.879936952349551      6.021430109023358
O       0.617316851442868      5.854140000255676      6.974670414001595
H       0.875580338579498      6.783745220417001      7.481852931307587
H       3.365145073251119      0.416019879188801      0.249465675056175
O       2.655049573996743      0.495064193279800      1.072640248490367
H       2.871073790167082      1.145255031829079      1.920393403302884
H       2.972675080320387     -0.131884090950843      3.163754201169850
O       3.747436543271362     -0.514102965924227      3.828399525489630
H       4.447172422626455      0.172910239845027      4.304301358057868
H       3.089379169984405     -0.483611736734649      5.903680471613316
O       3.256184521458733      0.454498532730281      6.433043387809722
H       3.347466098828336      1.387364610337523      5.876690482827106
H       3.078729504447713      2.927673771826373     -0.104813269244961
O       2.111434066608078      3.412054679429159      0.028658346780805
H       1.684413723190784      4.011057464182151     -0.775673232958506
H       2.873256687884377      3.021819856234755      2.792832794566468
O       2.916488506398580      2.685124150488961      3.828625733140726
H       2.289302240101993      3.158612786951778      4.583970620268142
H       3.076603557153084      3.570181832997729      6.262045270451271
O       3.452122031407083      3.243628682989854      7.231812724903049
H       3.466270245229277      3.935698805196224      8.073797744956790
H       2.973213450024936      6.165081648267013      0.093483897215502
O       2.544938762275946      6.008227781034447      1.083472612387394
H       3.134885864012481      6.222792457029461      1.974553089655197

